
Gurobi 9.5.2 (mac64[arm]) logging started Mon Apr 24 16:25:23 2023

Set parameter LogFile to value "Java/output/iterative_model/scenario_seed_4_nJob_20_machineCount_1/mip_increment_1/log.txt"
Gurobi Optimizer version 9.5.2 build v9.5.2rc0 (mac64[arm])
Thread count: 8 physical cores, 8 logical processors, using up to 8 threads
Optimize a model with 1120 rows, 3620 columns and 34927 nonzeros
Model fingerprint: 0xb36fe109
Variable types: 0 continuous, 3620 integer (3620 binary)
Coefficient statistics:
  Matrix range     [1e+00, 2e+02]
  Objective range  [2e+01, 3e+06]
  Bounds range     [1e+00, 1e+00]
  RHS range        [1e+00, 1e+00]
Found heuristic solution: objective 6896176.0000
Presolve removed 163 rows and 606 columns
Presolve time: 0.05s
Presolved: 957 rows, 3014 columns, 28003 nonzeros
Variable types: 0 continuous, 3014 integer (3008 binary)
Found heuristic solution: objective 5026624.0000

Root relaxation: objective 2.920413e+03, 218 iterations, 0.00 seconds (0.01 work units)

    Nodes    |    Current Node    |     Objective Bounds      |     Work
 Expl Unexpl |  Obj  Depth IntInf | Incumbent    BestBd   Gap | It/Node Time

     0     0 2920.41328    0   49 5026624.00 2920.41328   100%     -    0s
H    0     0                    4736384.0000 2920.41328   100%     -    0s
H    0     0                    3632.0000000 2920.41328  19.6%     -    0s
H    0     0                    3504.0000000 2920.41328  16.7%     -    0s
     0     0 3025.02399    0   67 3504.00000 3025.02399  13.7%     -    0s
     0     0 3025.02399    0   41 3504.00000 3025.02399  13.7%     -    0s
     0     0 3083.01310    0   56 3504.00000 3083.01310  12.0%     -    0s
     0     0 3101.65439    0   66 3504.00000 3101.65439  11.5%     -    0s
     0     0 3101.65598    0   67 3504.00000 3101.65598  11.5%     -    0s
     0     0 3131.08290    0   70 3504.00000 3131.08290  10.6%     -    0s
     0     0 3136.81243    0   85 3504.00000 3136.81243  10.5%     -    0s
     0     0 3142.70329    0   76 3504.00000 3142.70329  10.3%     -    0s
     0     0 3142.79196    0   82 3504.00000 3142.79196  10.3%     -    0s
H    0     0                    3424.0000000 3142.79196  8.21%     -    0s
H    0     0                    3408.0000000 3142.79196  7.78%     -    0s
     0     0 3163.80658    0   82 3408.00000 3163.80658  7.17%     -    0s
H    0     0                    3392.0000000 3163.80658  6.73%     -    0s
     0     0 3165.01757    0   81 3392.00000 3165.01757  6.69%     -    0s
     0     0 3165.26890    0   87 3392.00000 3165.26890  6.68%     -    0s
     0     0 3165.33024    0   87 3392.00000 3165.33024  6.68%     -    0s
     0     0 3170.66667    0   34 3392.00000 3170.66667  6.53%     -    0s
     0     0 3176.00000    0   35 3392.00000 3176.00000  6.37%     -    0s
     0     0 3184.53587    0   81 3392.00000 3184.53587  6.12%     -    0s
     0     0 3185.68889    0   71 3392.00000 3185.68889  6.08%     -    0s
     0     0 3185.70667    0   84 3392.00000 3185.70667  6.08%     -    0s
     0     0 3185.70667    0   89 3392.00000 3185.70667  6.08%     -    0s
     0     0 3185.70667    0   81 3392.00000 3185.70667  6.08%     -    0s
     0     2 3209.88444    0   79 3392.00000 3209.88444  5.37%     -    0s
H    2     4                    3280.0000000 3209.88444  2.14%  24.0    0s
H    3     2                    3264.0000000 3209.88444  1.66%  31.0    0s

Cutting planes:
  Cover: 4
  Clique: 22
  MIR: 12
  StrongCG: 2
  GUB cover: 17
  Zero half: 4
  RLT: 2

Explored 10 nodes (1856 simplex iterations) in 0.27 seconds (0.40 work units)
Thread count was 8 (of 8 available processors)

Solution count 10: 3264 3280 3392 ... 6.89618e+06

Optimal solution found (tolerance 1.00e-04)
Best objective 3.264000000000e+03, best bound 3.264000000000e+03, gap 0.0000%

Gurobi 9.5.2 (mac64[arm]) logging started Mon Apr 24 16:25:23 2023

Set parameter LogFile to value "Java/output/iterative_model/scenario_seed_4_nJob_20_machineCount_1/mip_increment_1/log.txt"
Gurobi Optimizer version 9.5.2 build v9.5.2rc0 (mac64[arm])
Thread count: 8 physical cores, 8 logical processors, using up to 8 threads
Optimize a model with 1120 rows, 2860 columns and 33747 nonzeros
Model fingerprint: 0xb96e1e43
Variable types: 0 continuous, 2860 integer (2860 binary)
Coefficient statistics:
  Matrix range     [1e+00, 2e+02]
  Objective range  [2e+02, 5e+05]
  Bounds range     [1e+00, 1e+00]
  RHS range        [1e+00, 1e+00]
Found heuristic solution: objective 666492.00000
Presolve removed 442 rows and 591 columns
Presolve time: 0.06s
Presolved: 678 rows, 2269 columns, 26175 nonzeros
Variable types: 0 continuous, 2269 integer (2267 binary)
Found heuristic solution: objective 654984.00000

Root relaxation: objective 4.270667e+03, 889 iterations, 0.02 seconds (0.03 work units)

    Nodes    |    Current Node    |     Objective Bounds      |     Work
 Expl Unexpl |  Obj  Depth IntInf | Incumbent    BestBd   Gap | It/Node Time

     0     0 4270.66667    0   33 654984.000 4270.66667  99.3%     -    0s
H    0     0                    407992.00000 4270.66667  99.0%     -    0s
H    0     0                    401424.00000 4270.66667  98.9%     -    0s
H    0     0                    218012.00000 4270.66667  98.0%     -    0s
H    0     0                    145744.00000 4270.66667  97.1%     -    0s
H    0     0                    145680.00000 4338.55244  97.0%     -    0s
     0     0 4338.55244    0   75 145680.000 4338.55244  97.0%     -    0s
H    0     0                    129372.00000 4338.55244  96.6%     -    0s
H    0     0                    43592.000000 4338.55244  90.0%     -    0s
     0     0 5529.28445    0   76 43592.0000 5529.28445  87.3%     -    0s
     0     0 5536.51122    0   78 43592.0000 5536.51122  87.3%     -    0s
H    0     0                    30767.997180 5536.51122  82.0%     -    0s
     0     0 6121.93023    0   81 30767.9972 6121.93023  80.1%     -    0s
     0     0 6121.93023    0   37 30767.9972 6121.93023  80.1%     -    0s
H    0     0                    27348.000000 6121.93023  77.6%     -    0s
     0     0 6121.93023    0  108 27348.0000 6121.93023  77.6%     -    0s
H    0     0                    24452.000000 6121.93023  75.0%     -    0s
H    0     0                    23928.000000 6121.93023  74.4%     -    0s
     0     0 6297.04986    0   92 23928.0000 6297.04986  73.7%     -    0s
     0     0 6656.92404    0  120 23928.0000 6656.92404  72.2%     -    0s
     0     0 6962.61492    0  123 23928.0000 6962.61492  70.9%     -    0s
     0     0 7064.02039    0  122 23928.0000 7064.02039  70.5%     -    0s
H    0     0                    23484.000000 7064.02039  69.9%     -    0s
H    0     0                    20444.000000 8241.50282  59.7%     -    0s
H    0     0                    17116.000000 8457.37818  50.6%     -    0s
     0     0 8613.47959    0  128 17116.0000 8613.47959  49.7%     -    0s
H    0     0                    16592.000000 8613.47959  48.1%     -    0s
     0     0 9187.12999    0  132 16592.0000 9187.12999  44.6%     -    0s
     0     0 9240.30293    0  133 16592.0000 9240.30293  44.3%     -    0s
     0     0 9257.28897    0  144 16592.0000 9257.28897  44.2%     -    0s
     0     0 9257.28897    0  147 16592.0000 9257.28897  44.2%     -    0s
     0     0 10882.3051    0  139 16592.0000 10882.3051  34.4%     -    0s
     0     0 11277.0128    0  153 16592.0000 11277.0128  32.0%     -    0s
     0     0 11497.1710    0  140 16592.0000 11497.1710  30.7%     -    0s
     0     0 11586.4567    0  156 16592.0000 11586.4567  30.2%     -    0s
     0     0 11598.3093    0  160 16592.0000 11598.3093  30.1%     -    0s
     0     0 11603.7292    0  158 16592.0000 11603.7292  30.1%     -    0s
     0     0 12275.8405    0  143 16592.0000 12275.8405  26.0%     -    0s
     0     0 12560.6548    0  159 16592.0000 12560.6548  24.3%     -    0s
     0     0 12634.5441    0  150 16592.0000 12634.5441  23.9%     -    0s
     0     0 12643.8096    0  162 16592.0000 12643.8096  23.8%     -    0s
     0     0 12645.6157    0  164 16592.0000 12645.6157  23.8%     -    0s
     0     0 13474.3014    0  151 16592.0000 13474.3014  18.8%     -    0s
H    0     0                    15184.000000 13474.3014  11.3%     -    0s
     0     0 13577.4383    0  141 15184.0000 13577.4383  10.6%     -    0s
     0     0 13597.1966    0  152 15184.0000 13597.1966  10.5%     -    0s
     0     0 13597.5296    0  153 15184.0000 13597.5296  10.4%     -    0s
     0     0 14659.3342    0  160 15184.0000 14659.3342  3.46%     -    0s

Cutting planes:
  Gomory: 1
  Cover: 1
  Clique: 18
  MIR: 34
  StrongCG: 16
  GUB cover: 47
  Zero half: 4
  RLT: 1

Explored 1 nodes (8208 simplex iterations) in 0.73 seconds (1.12 work units)
Thread count was 8 (of 8 available processors)

Solution count 10: 15184 16592 17116 ... 36936

Optimal solution found (tolerance 1.00e-04)
Best objective 1.518400000000e+04, best bound 1.518400000000e+04, gap 0.0000%

Gurobi 9.5.2 (mac64[arm]) logging started Mon Apr 24 16:25:24 2023

Set parameter LogFile to value "Java/output/iterative_model/scenario_seed_4_nJob_20_machineCount_1/mip_increment_1/log.txt"
Gurobi Optimizer version 9.5.2 build v9.5.2rc0 (mac64[arm])
Thread count: 8 physical cores, 8 logical processors, using up to 8 threads
Optimize a model with 1124 rows, 2221 columns and 26923 nonzeros
Model fingerprint: 0x9c4708ca
Variable types: 0 continuous, 2221 integer (2221 binary)
Coefficient statistics:
  Matrix range     [1e+00, 2e+02]
  Objective range  [9e+01, 6e+04]
  Bounds range     [1e+00, 1e+00]
  RHS range        [1e+00, 1e+00]
Found heuristic solution: objective 129786.00000
Presolve removed 591 rows and 437 columns
Presolve time: 0.04s
Presolved: 533 rows, 1784 columns, 21395 nonzeros
Variable types: 0 continuous, 1784 integer (1784 binary)
Found heuristic solution: objective 66520.000000

Root relaxation: objective 9.754903e+03, 448 iterations, 0.01 seconds (0.01 work units)

    Nodes    |    Current Node    |     Objective Bounds      |     Work
 Expl Unexpl |  Obj  Depth IntInf | Incumbent    BestBd   Gap | It/Node Time

     0     0 9754.90287    0   48 66520.0000 9754.90287  85.3%     -    0s
H    0     0                    20413.000000 9754.90287  52.2%     -    0s
H    0     0                    16631.000000 9880.36928  40.6%     -    0s
     0     0 9880.36928    0   64 16631.0000 9880.36928  40.6%     -    0s
H    0     0                    10768.000000 10012.2211  7.02%     -    0s
     0     0 10022.7039    0   64 10768.0000 10022.7039  6.92%     -    0s
     0     0 10023.4742    0   64 10768.0000 10023.4742  6.91%     -    0s
     0     0 10603.9597    0   47 10768.0000 10603.9597  1.52%     -    0s
     0     0     cutoff    0      10768.0000 10768.0000  0.00%     -    0s

Explored 1 nodes (1320 simplex iterations) in 0.16 seconds (0.24 work units)
Thread count was 8 (of 8 available processors)

Solution count 7: 10768 10768 10768 ... 129786

Optimal solution found (tolerance 1.00e-04)
Best objective 1.076800000000e+04, best bound 1.076800000000e+04, gap 0.0000%

Gurobi 9.5.2 (mac64[arm]) logging started Mon Apr 24 16:25:24 2023

Set parameter LogFile to value "Java/output/iterative_model/scenario_seed_4_nJob_20_machineCount_1/mip_increment_1/log.txt"
Gurobi Optimizer version 9.5.2 build v9.5.2rc0 (mac64[arm])
Thread count: 8 physical cores, 8 logical processors, using up to 8 threads
Optimize a model with 1192 rows, 11403 columns and 128748 nonzeros
Model fingerprint: 0x661f2bce
Variable types: 0 continuous, 11403 integer (11403 binary)
Coefficient statistics:
  Matrix range     [1e+00, 2e+02]
  Objective range  [4e+00, 3e+06]
  Bounds range     [1e+00, 1e+00]
  RHS range        [1e+00, 1e+00]

Warning: Completing partial solution with 11340 unfixed non-continuous variables out of 11403
User MIP start produced solution with objective 24976 (0.01s)
Loaded user MIP start with objective 24976

Presolve removed 74 rows and 1626 columns
Presolve time: 0.15s
Presolved: 1118 rows, 9777 columns, 108893 nonzeros
Variable types: 0 continuous, 9777 integer (9763 binary)

Root relaxation: objective 5.875171e+03, 8041 iterations, 0.39 seconds (0.87 work units)

    Nodes    |    Current Node    |     Objective Bounds      |     Work
 Expl Unexpl |  Obj  Depth IntInf | Incumbent    BestBd   Gap | It/Node Time

     0     0 5875.17094    0  187 24976.0000 5875.17094  76.5%     -    0s
H    0     0                    24113.000000 5875.17094  75.6%     -    0s
     0     0 5918.78836    0  300 24113.0000 5918.78836  75.5%     -    1s
H    0     0                    22989.000000 5918.78836  74.3%     -    1s
     0     0 5919.96140    0  330 22989.0000 5919.96140  74.2%     -    1s
     0     0 5922.68311    0  324 22989.0000 5922.68311  74.2%     -    1s
     0     0 5922.73721    0  322 22989.0000 5922.73721  74.2%     -    1s
     0     0 5922.76185    0  322 22989.0000 5922.76185  74.2%     -    1s
H    0     0                    22974.000000 5922.76185  74.2%     -    1s
     0     0 5956.31915    0  363 22974.0000 5956.31915  74.1%     -    2s
     0     0 5956.31915    0  189 22974.0000 5956.31915  74.1%     -    3s
H    0     0                    22970.000000 5956.31915  74.1%     -    3s
     0     0 6071.37158    0  325 22970.0000 6071.37158  73.6%     -    3s
     0     0 6081.34086    0  322 22970.0000 6081.34086  73.5%     -    3s
     0     0 6096.00692    0  324 22970.0000 6096.00692  73.5%     -    3s
     0     0 6097.07501    0  329 22970.0000 6097.07501  73.5%     -    3s
     0     0 6097.09882    0  328 22970.0000 6097.09882  73.5%     -    3s
     0     0 6364.17836    0  392 22970.0000 6364.17836  72.3%     -    4s
     0     0 6370.79301    0  392 22970.0000 6370.79301  72.3%     -    4s
     0     0 6372.61280    0  435 22970.0000 6372.61280  72.3%     -    4s
     0     0 6374.54346    0  449 22970.0000 6374.54346  72.2%     -    4s
     0     0 6374.57347    0  444 22970.0000 6374.57347  72.2%     -    4s
     0     0 6579.16732    0  456 22970.0000 6579.16732  71.4%     -    5s
     0     0 6594.29516    0  466 22970.0000 6594.29516  71.3%     -    6s
     0     0 6595.14882    0  464 22970.0000 6595.14882  71.3%     -    6s
     0     0 6596.06033    0  471 22970.0000 6596.06033  71.3%     -    6s
     0     0 6596.29379    0  470 22970.0000 6596.29379  71.3%     -    6s
     0     0 7123.00792    0  468 22970.0000 7123.00792  69.0%     -    7s
H    0     0                    22739.000000 7123.00792  68.7%     -    7s
     0     0 7547.40869    0  468 22739.0000 7547.40869  66.8%     -    8s
H    0     0                    22467.000000 7547.40869  66.4%     -    8s
     0     0 7752.44609    0  452 22467.0000 7752.44609  65.5%     -    8s
     0     0 7767.45146    0  483 22467.0000 7767.45146  65.4%     -    8s
     0     0 7777.94680    0  467 22467.0000 7777.94680  65.4%     -    8s
     0     0 7778.27164    0  475 22467.0000 7778.27164  65.4%     -    8s
     0     0 8284.66966    0  479 22467.0000 8284.66966  63.1%     -    9s
H    0     0                    21950.000000 8284.66966  62.3%     -    9s
     0     0 8321.54227    0  501 21950.0000 8321.54227  62.1%     -    9s
     0     0 8343.08553    0  512 21950.0000 8343.08553  62.0%     -    9s
     0     0 8343.51084    0  522 21950.0000 8343.51084  62.0%     -    9s
     0     0 8792.77531    0  513 21950.0000 8792.77531  59.9%     -    9s
     0     0 8814.69159    0  536 21950.0000 8814.69159  59.8%     -   10s
     0     0 8815.76594    0  546 21950.0000 8815.76594  59.8%     -   10s
     0     0 9145.69225    0  533 21950.0000 9145.69225  58.3%     -   10s
     0     0 9177.77403    0  538 21950.0000 9177.77403  58.2%     -   10s
     0     0 9179.76483    0  555 21950.0000 9179.76483  58.2%     -   10s
     0     0 9697.55610    0  541 21950.0000 9697.55610  55.8%     -   11s
     0     0 9957.78324    0  544 21950.0000 9957.78324  54.6%     -   11s
     0     0 9961.69383    0  577 21950.0000 9961.69383  54.6%     -   11s
     0     0 9962.87520    0  594 21950.0000 9962.87520  54.6%     -   11s
     0     0 10242.2945    0  589 21950.0000 10242.2945  53.3%     -   12s
     0     0 10255.9748    0  601 21950.0000 10255.9748  53.3%     -   12s
     0     0 10256.8046    0  603 21950.0000 10256.8046  53.3%     -   12s
     0     0 10709.7460    0  605 21950.0000 10709.7460  51.2%     -   12s
     0     0 10836.0975    0  588 21950.0000 10836.0975  50.6%     -   13s
     0     0 10848.7552    0  614 21950.0000 10848.7552  50.6%     -   13s
     0     0 10851.1718    0  628 21950.0000 10851.1718  50.6%     -   13s
     0     0 11161.7962    0  596 21950.0000 11161.7962  49.1%     -   14s
     0     0 11307.4454    0  576 21950.0000 11307.4454  48.5%     -   14s
     0     0 11326.9608    0  580 21950.0000 11326.9608  48.4%     -   14s
     0     0 11328.7994    0  600 21950.0000 11328.7994  48.4%     -   14s
     0     0 11717.8335    0  557 21950.0000 11717.8335  46.6%     -   15s
     0     0 12022.4173    0  538 21950.0000 12022.4173  45.2%     -   15s
     0     0 12050.3000    0  570 21950.0000 12050.3000  45.1%     -   15s
     0     0 12064.4925    0  580 21950.0000 12064.4925  45.0%     -   16s
     0     0 12066.1421    0  579 21950.0000 12066.1421  45.0%     -   16s
     0     0 12811.4336    0  572 21950.0000 12811.4336  41.6%     -   16s
     0     0 13308.9958    0  582 21950.0000 13308.9958  39.4%     -   17s
     0     0 13369.2992    0  615 21950.0000 13369.2992  39.1%     -   17s
     0     0 13401.5941    0  624 21950.0000 13401.5941  38.9%     -   17s
     0     0 13404.6324    0  640 21950.0000 13404.6324  38.9%     -   17s
     0     0 14220.4772    0  599 21950.0000 14220.4772  35.2%     -   18s
     0     0 14414.9563    0  568 21950.0000 14414.9563  34.3%     -   18s
     0     0 14558.1996    0  553 21950.0000 14558.1996  33.7%     -   19s
     0     0 14572.2668    0  576 21950.0000 14572.2668  33.6%     -   19s
     0     0 14582.3335    0  584 21950.0000 14582.3335  33.6%     -   19s
     0     0 14583.3468    0  582 21950.0000 14583.3468  33.6%     -   19s
     0     0 15321.7716    0  543 21950.0000 15321.7716  30.2%     -   19s
     0     0 15381.1456    0  600 21950.0000 15381.1456  29.9%     -   20s
     0     0 15398.8241    0  627 21950.0000 15398.8241  29.8%     -   20s
     0     0 15405.3617    0  646 21950.0000 15405.3617  29.8%     -   20s
     0     0 15752.2550    0  637 21950.0000 15752.2550  28.2%     -   20s
H    0     0                    21799.000000 15752.2550  27.7%     -   20s
     0     0 15775.0721    0  673 21799.0000 15775.0721  27.6%     -   21s
     0     0 15781.2686    0  666 21799.0000 15781.2686  27.6%     -   21s
     0     0 16078.6147    0  637 21799.0000 16078.6147  26.2%     -   21s
     0     0 16176.5998    0  668 21799.0000 16176.5998  25.8%     -   22s
     0     0 16250.7861    0  684 21799.0000 16250.7861  25.5%     -   22s
     0     0 16256.2897    0  658 21799.0000 16256.2897  25.4%     -   22s
     0     0 16579.9184    0  630 21799.0000 16579.9184  23.9%     -   23s
H    0     0                    21623.000000 16579.9184  23.3%     -   23s
     0     0 16614.9659    0  633 21623.0000 16614.9659  23.2%     -   23s
     0     0 16646.1009    0  634 21623.0000 16646.1009  23.0%     -   23s
     0     0 16648.6433    0  650 21623.0000 16648.6433  23.0%     -   23s
     0     0 16735.1322    0  620 21623.0000 16735.1322  22.6%     -   24s
     0     0 16755.8082    0  648 21623.0000 16755.8082  22.5%     -   24s
     0     0 16757.2669    0  659 21623.0000 16757.2669  22.5%     -   24s
     0     0 16842.1684    0  631 21623.0000 16842.1684  22.1%     -   24s
     0     0 16842.6368    0  603 21623.0000 16842.6368  22.1%     -   25s
     0     0 16843.2219    0  184 21623.0000 16843.2219  22.1%     -   26s
     0     0 16843.2219    0  360 21623.0000 16843.2219  22.1%     -   26s
     0     0 16843.2219    0  446 21623.0000 16843.2219  22.1%     -   27s
     0     0 16843.2219    0  429 21623.0000 16843.2219  22.1%     -   27s
     0     0 16843.2219    0  519 21623.0000 16843.2219  22.1%     -   27s
     0     0 16843.2219    0  486 21623.0000 16843.2219  22.1%     -   28s
     0     0 16911.8969    0  536 21623.0000 16911.8969  21.8%     -   28s
     0     0 16935.6788    0  507 21623.0000 16935.6788  21.7%     -   28s
     0     0 16941.8022    0  539 21623.0000 16941.8022  21.6%     -   28s
     0     0 16942.3423    0  538 21623.0000 16942.3423  21.6%     -   28s
     0     0 17091.1770    0  583 21623.0000 17091.1770  21.0%     -   28s
     0     0 17096.6360    0  590 21623.0000 17096.6360  20.9%     -   28s
     0     0 17176.3315    0  614 21623.0000 17176.3315  20.6%     -   28s
     0     0 17176.3315    0  600 21623.0000 17176.3315  20.6%     -   29s
H    0     0                    21492.000000 17176.5999  20.1%     -   29s
     0     2 17176.5999    0  600 21492.0000 17176.5999  20.1%     -   29s
     3     8 17331.6150    2  557 21492.0000 17181.2862  20.1%  1308   30s
    88    76 18412.2552    8  435 21492.0000 17434.2661  18.9%  2067   35s
H  114    96                    21487.000000 17437.4182  18.8%  1936   36s
H  120    96                    20428.000000 17437.4182  14.6%  1994   36s
H  165    92                    20207.000000 17437.4182  13.7%  1709   37s
H  170    92                    20201.000000 17437.4182  13.7%  1693   37s
H  267   127                    19905.000000 17437.4182  12.4%  1507   39s
H  271   127                    19655.000000 17437.4182  11.3%  1518   39s
   277   132 18979.9895   16  400 19655.0000 17437.4182  11.3%  1524   40s
H  310   134                    19650.000000 17437.4182  11.3%  1454   40s
   609   192 18341.3809    8  270 19650.0000 17915.9000  8.82%  1183   45s
  1728   304 19148.3861   20  192 19650.0000 18947.2537  3.58%   662   50s

Cutting planes:
  Gomory: 12
  Cover: 81
  Clique: 156
  MIR: 169
  StrongCG: 88
  GUB cover: 166
  Inf proof: 2
  Zero half: 10
  RLT: 3
  Relax-and-lift: 1

Explored 2705 nodes (1516593 simplex iterations) in 51.71 seconds (128.55 work units)
Thread count was 8 (of 8 available processors)

Solution count 10: 19650 19655 19905 ... 21799

Optimal solution found (tolerance 1.00e-04)
Best objective 1.965000000000e+04, best bound 1.965000000000e+04, gap 0.0000%
